certificates/rado_a9_c158_N24.drat
-20 17 -23 -24 0
-22 -23 -24 0
-23 -24 0
d -22 -23 -24 0
22 -24 0
-24 0
-22 23 0
16 22 0
22 0
-18 0
-17 0
23 0
14 0
20 0
13 0
12 0
21 0
19 0
-1 0
-6 0
-7 0
-9 0
-10 0
-8 0
15 0
5 0
0
